p cnf 14 64
-2 -3 4 0
-6 -7 14 0
-3 -4 -9 0
-4 -7 9 0
-1 6 9 0
-2 -7 14 0
-6 11 -13 0
-4 5 -13 0
-1 -5 14 0
-3 7 14 0
-2 12 -13 0
-6 -10 -14 0
-2 -8 -12 0
-2 -3 -6 0
-3 -9 10 0
-1 9 -13 0
-2 -5 -13 0
-3 -5 -14 0
4 -5 -9 0
-3 -11 13 0
8 10 -12 0
3 4 -8 0
-4 -5 13 0
-4 -6 11 0
4 7 8 0
-2 -10 -13 0
2 7 -12 0
7 13 14 0
-5 -9 14 0
8 -12 14 0
5 7 -12 0
-2 -8 -14 0
-10 -13 14 0
4 -6 13 0
5 -10 -12 0
-2 -4 9 0
-2 -9 13 0
-2 11 13 0
-3 4 12 0
1 -2 -5 0
1 -2 -9 0
-4 -6 -14 0
3 -6 -14 0
3 6 11 0
10 11 -14 0
4 5 11 0
1 -9 13 0
2 4 6 0
-5 9 10 0
-8 -11 12 0
5 -12 -13 0
1 -2 -10 0
1 4 -11 0
1 -6 -7 0
-6 -7 8 0
5 10 -14 0
-4 -13 -14 0
-3 -7 -8 0
-2 5 -10 0
-4 -6 -13 0
3 -4 8 0
-5 -9 13 0
-1 -5 7 0
5 -9 -11 0
